; benchmark generated from python API
(set-info :status unknown)
(declare-datatypes ((IntState 0)) (((Mk1 (val1 Int)) (Mk2 (val2 Int)))))
 (declare-fun c_main_~x~0 () Int)
(declare-fun c_main_~y~0 () Int)
(assert
 (let (($x180 (exists ((|v_main_#t~nondet0_7_st| IntState) (val!38 Int) )(exists ((|v_main_#t~nondet0_8_st| IntState) (val!39 Int) )(exists ((|v_main_#t~nondet0_5_st| IntState) (val!40 Int) )(exists ((|v_main_#t~nondet0_6_st| IntState) (val!41 Int) )(let ((?x106 (val2 |v_main_#t~nondet0_6_st|)))
 (let ((?x213 (* 2 ?x106)))
 (let ((?x61 (val2 |v_main_#t~nondet0_5_st|)))
 (let ((?x94 (* 2 ?x61)))
 (let ((?x17 (val2 |v_main_#t~nondet0_8_st|)))
 (let ((?x42 (* 2 ?x17)))
 (let ((?x29 (val2 |v_main_#t~nondet0_7_st|)))
 (let ((?x140 (* 2 ?x29)))
 (let ((?x58 (+ ?x140 ?x42 ?x94 ?x213 1)))
 (let (($x112 (not (= |v_main_#t~nondet0_6_st| (Mk1 val!41)))))
 (let (($x98 (not (= |v_main_#t~nondet0_5_st| (Mk1 val!40)))))
 (let (($x154 (not (= |v_main_#t~nondet0_8_st| (Mk1 val!39)))))
 (let (($x82 (not (= |v_main_#t~nondet0_7_st| (Mk1 val!38)))))
 (and $x82 $x154 $x98 $x112 (= ?x58 c_main_~x~0))))))))))))))))
 )
 )
 )
 ))
 (let (($x205 (exists ((|v_main_#t~nondet1_8_st| IntState) (val!34 Int) )(exists ((|v_main_#t~nondet1_6_st| IntState) (val!35 Int) )(exists ((|v_main_#t~nondet1_7_st| IntState) (val!36 Int) )(exists ((|v_main_#t~nondet1_5_st| IntState) (val!37 Int) )(let ((?x106 (val2 |v_main_#t~nondet1_5_st|)))
 (let ((?x213 (* 2 ?x106)))
 (let ((?x61 (val2 |v_main_#t~nondet1_7_st|)))
 (let ((?x94 (* 2 ?x61)))
 (let ((?x17 (val2 |v_main_#t~nondet1_6_st|)))
 (let ((?x42 (* 2 ?x17)))
 (let ((?x29 (val2 |v_main_#t~nondet1_8_st|)))
 (let ((?x140 (* 2 ?x29)))
 (let ((?x58 (+ ?x140 ?x42 ?x94 ?x213 1)))
 (let (($x112 (not (= |v_main_#t~nondet1_5_st| (Mk1 val!37)))))
 (let (($x98 (not (= |v_main_#t~nondet1_7_st| (Mk1 val!36)))))
 (let (($x154 (not (= |v_main_#t~nondet1_6_st| (Mk1 val!35)))))
 (let (($x82 (not (= |v_main_#t~nondet1_8_st| (Mk1 val!34)))))
 (and $x82 $x154 $x98 $x112 (= ?x58 c_main_~y~0))))))))))))))))
 )
 )
 )
 ))
 (let (($x216 (exists ((|v_main_#t~nondet1_6| Int) )(exists ((|v_main_#t~nondet1_7| Int) )(exists ((|v_main_#t~nondet1_5| Int) )(let ((?x75 (* 2 |v_main_#t~nondet1_5|)))
 (let ((?x121 (* 2 |v_main_#t~nondet1_7|)))
 (let ((?x109 (* 2 |v_main_#t~nondet1_6|)))
 (let ((?x116 (+ ?x109 ?x121 ?x75 1)))
 (= c_main_~y~0 ?x116))))))
 )
 )
 ))
 (let (($x86 (exists ((|v_main_#t~nondet0_7| Int) )(exists ((|v_main_#t~nondet0_5| Int) )(exists ((|v_main_#t~nondet0_6| Int) )(let ((?x75 (* 2 |v_main_#t~nondet0_6|)))
 (let ((?x121 (* 2 |v_main_#t~nondet0_5|)))
 (let ((?x109 (* 2 |v_main_#t~nondet0_7|)))
 (let ((?x116 (+ ?x109 ?x121 ?x75 1)))
 (= ?x116 c_main_~x~0))))))
 )
 )
 ))
 (and (and $x86 $x216) (not (and $x205 $x180))))))))
(check-sat)
